#######################################
### Exact MIP solver for the HHCRSP ###
#######################################
-- Instance file: new-instances/HHCRSP_200_40_68_0.8_R_C.txt
-- Max threads: 4
-- Time limit: 999999 seconds
-- Use initial solution: No
Trivial flow violations prevented generating 359875 variables.
Version identifier: 20.1.0.0 | 2020-11-10 | 9bedb6d68
CPXPARAM_Threads                                 4
CPXPARAM_TimeLimit                               999999
Parallel mode: deterministic, using up to 4 threads for concurrent optimization:
 * Starting dual Simplex on 1 thread...
 * Starting Barrier on 3 threads...
Tried aggregator 1 time.
LP Presolve eliminated 22086 rows and 5515 columns.
Reduced LP has 415994 rows, 395758 columns, and 7267815 nonzeros.
Presolve time = 15.62 sec. (1680.29 ticks)
Symmetry aggregator did 633379 additional substitutions.

Iteration log . . .
Iteration:     1   Dual objective     =             0.000000
Iteration:   932   Dual objective     =           238.000000

Dual crossover.
  Dual:  Fixing 898 variables.
      897 DMoves:  Infeasibility  7.46236409e-13  Objective  2.39333333e+02
        0 DMoves:  Infeasibility  3.28237441e-13  Objective  2.39333333e+02
  Dual:  Pushed 23, exchanged 875.
  Primal:  Fixing 600 variables.
      599 PMoves:  Infeasibility  2.77555756e-17  Objective  2.39333333e+02
        0 PMoves:  Infeasibility  5.55111512e-16  Objective  2.39333333e+02
  Primal:  Pushed 506, exchanged 94.

Dual simplex solved model.


Solution status from MIP model:
-- Processing time: 24.792 sec.
-- Memory used: 456.334 MB
-- Best bound: inf
-- Obj value: 239.333
-- Gap: inf%
-- Total distance: 718
-- Total tardiness: 0
-- Largest tardiness: 0
